(declare-fun y_ack!24 () (_ BitVec 64))
(declare-fun FPCHECK_FADD_ACCURACY ((_ BitVec 64) (_ BitVec 64)) Bool)
(assert (not (fp.eq ((_ to_fp 11 53) y_ack!24) ((_ to_fp 11 53) #x0000000000000000))))
(assert (let ((a!1 (fp.abs (fp.div roundNearestTiesToEven
                           (fp.mul roundNearestTiesToEven
                                   ((_ to_fp 11 53) #x4000000000000000)
                                   ((_ to_fp 11 53) y_ack!24))
                           ((_ to_fp 11 53) #x3ff0000000000000)))))
  (not (fp.lt a!1 ((_ to_fp 11 53) #x3fb999999999999a)))))
(assert (FPCHECK_FADD_ACCURACY y_ack!24 #x3ff0000000000000))

(check-sat)
(exit)
